unknown
(:binary-propagations  2122
 :decisions            729
 :del-clause           689
 :final-checks         3
 :max-generation       1
 :max-memory           31.61
 :memory               23.10
 :mk-bool-var          4269
 :mk-clause            1003
 :mk-clause-binary     2580
 :num-allocs           212108274
 :num-checks           1
 :propagations         2275
 :quant-instantiations 689
 :restarts             2
 :rlimit-count         1521304
 :time                 0.30)
